80   3160
185
125 115 98 35 65 165 129 100 113 164 73 174 64 57 118 161 36 85 43 150 62 147 58 65 168 62 73 50 133 79 112 52 66 118 97 107 123 94 166 70 156 47 84 149 122 143 76 53 161 80 157 161 150 126 82 115 149 147 86 73 179 93 112 132 88 48 53 105 114 136 137 118 106 181 119 73 69 138 90 1 2 242
1 3 182
1 4 127
1 5 228
1 6 237
1 7 148
1 8 285
1 9 15
1 10 281
1 11 101
1 12 43
1 13 78
1 14 13
1 15 175
1 16 62
1 17 155
1 18 252
1 19 79
1 20 234
1 21 290
1 22 55
1 23 123
1 24 80
1 25 141
1 26 196
1 27 19
1 28 62
1 29 225
1 30 290
1 31 282
1 32 261
1 33 90
1 34 83
1 35 263
1 36 143
1 37 93
1 38 268
1 39 198
1 40 163
1 41 260
1 42 146
1 43 247
1 44 210
1 45 83
1 46 159
1 47 162
1 48 285
1 49 45
1 50 45
1 51 251
1 52 121
1 53 35
1 54 286
1 55 217
1 56 276
1 57 158
1 58 122
1 59 52
1 60 290
1 61 25
1 62 183
1 63 64
1 64 248
1 65 217
1 66 53
1 67 18
1 68 219
1 69 198
1 70 86
1 71 236
1 72 141
1 73 61
1 74 224
1 75 293
1 76 197
1 77 290
1 78 47
1 79 228
1 80 95
2 3 15
2 4 231
2 5 62
2 6 128
2 7 218
2 8 108
2 9 137
2 10 95
2 11 24
2 12 42
2 13 71
2 14 87
2 15 74
2 16 264
2 17 277
2 18 128
2 19 77
2 20 148
2 21 174
2 22 60
2 23 187
2 24 292
2 25 204
2 26 297
2 27 243
2 28 227
2 29 263
2 30 61
2 31 187
2 32 290
2 33 133
2 34 151
2 35 206
2 36 279
2 37 246
2 38 220
2 39 37
2 40 38
2 41 277
2 42 146
2 43 299
2 44 289
2 45 179
2 46 207
2 47 287
2 48 133
2 49 19
2 50 68
2 51 38
2 52 92
2 53 187
2 54 220
2 55 65
2 56 204
2 57 115
2 58 242
2 59 34
2 60 152
2 61 127
2 62 237
2 63 216
2 64 63
2 65 195
2 66 17
2 67 273
2 68 36
2 69 167
2 70 86
2 71 130
2 72 196
2 73 113
2 74 178
2 75 213
2 76 262
2 77 212
2 78 242
2 79 110
2 80 219
3 4 185
3 5 204
3 6 260
3 7 185
3 8 261
3 9 179
3 10 272
3 11 91
3 12 226
3 13 91
3 14 225
3 15 39
3 16 32
3 17 276
3 18 171
3 19 142
3 20 269
3 21 206
3 22 48
3 23 214
3 24 228
3 25 293
3 26 167
3 27 120
3 28 39
3 29 233
3 30 144
3 31 135
3 32 139
3 33 141
3 34 292
3 35 66
3 36 62
3 37 75
3 38 129
3 39 181
3 40 133
3 41 156
3 42 77
3 43 134
3 44 271
3 45 235
3 46 34
3 47 80
3 48 127
3 49 13
3 50 178
3 51 142
3 52 234
3 53 224
3 54 36
3 55 218
3 56 225
3 57 272
3 58 156
3 59 108
3 60 53
3 61 268
3 62 102
3 63 12
3 64 80
3 65 45
3 66 16
3 67 42
3 68 150
3 69 73
3 70 118
3 71 33
3 72 265
3 73 135
3 74 144
3 75 116
3 76 76
3 77 114
3 78 66
3 79 231
3 80 27
4 5 257
4 6 12
4 7 268
4 8 249
4 9 132
4 10 131
4 11 82
4 12 79
4 13 40
4 14 185
4 15 45
4 16 159
4 17 275
4 18 90
4 19 280
4 20 217
4 21 28
4 22 249
4 23 60
4 24 262
4 25 17
4 26 59
4 27 54
4 28 291
4 29 89
4 30 132
4 31 52
4 32 167
4 33 297
4 34 282
4 35 253
4 36 15
4 37 90
4 38 267
4 39 172
4 40 21
4 41 115
4 42 231
4 43 244
4 44 55
4 45 115
4 46 27
4 47 44
4 48 196
4 49 202
4 50 56
4 51 250
4 52 70
4 53 69
4 54 25
4 55 54
4 56 206
4 57 11
4 58 245
4 59 98
4 60 120
4 61 16
4 62 160
4 63 87
4 64 238
4 65 176
4 66 116
4 67 146
4 68 299
4 69 115
4 70 250
4 71 252
4 72 86
4 73 124
4 74 75
4 75 105
4 76 235
4 77 236
4 78 102
4 79 174
4 80 168
5 6 34
5 7 170
5 8 99
5 9 90
5 10 230
5 11 18
5 12 286
5 13 171
5 14 285
5 15 267
5 16 291
5 17 299
5 18 101
5 19 59
5 20 211
5 21 247
5 22 196
5 23 300
5 24 266
5 25 266
5 26 59
5 27 53
5 28 188
5 29 42
5 30 114
5 31 176
5 32 203
5 33 212
5 34 280
5 35 39
5 36 80
5 37 58
5 38 252
5 39 12
5 40 135
5 41 77
5 42 153
5 43 22
5 44 253
5 45 37
5 46 267
5 47 75
5 48 88
5 49 236
5 50 275
5 51 287
5 52 41
5 53 45
5 54 177
5 55 79
5 56 163
5 57 154
5 58 72
5 59 150
5 60 213
5 61 249
5 62 28
5 63 162
5 64 138
5 65 197
5 66 116
5 67 272
5 68 72
5 69 158
5 70 252
5 71 85
5 72 123
5 73 300
5 74 148
5 75 125
5 76 94
5 77 76
5 78 57
5 79 196
5 80 297
6 7 97
6 8 294
6 9 114
6 10 129
6 11 164
6 12 105
6 13 230
6 14 179
6 15 214
6 16 39
6 17 117
6 18 294
6 19 89
6 20 51
6 21 48
6 22 279
6 23 298
6 24 266
6 25 56
6 26 124
6 27 127
6 28 13
6 29 63
6 30 69
6 31 136
6 32 300
6 33 280
6 34 252
6 35 65
6 36 136
6 37 300
6 38 299
6 39 220
6 40 50
6 41 17
6 42 196
6 43 39
6 44 188
6 45 142
6 46 291
6 47 188
6 48 63
6 49 276
6 50 68
6 51 20
6 52 64
6 53 228
6 54 91
6 55 95
6 56 119
6 57 150
6 58 269
6 59 43
6 60 290
6 61 195
6 62 80
6 63 141
6 64 266
6 65 40
6 66 39
6 67 75
6 68 84
6 69 83
6 70 27
6 71 56
6 72 141
6 73 50
6 74 87
6 75 286
6 76 293
6 77 153
6 78 213
6 79 278
6 80 169
7 8 207
7 9 66
7 10 240
7 11 169
7 12 133
7 13 88
7 14 175
7 15 12
7 16 115
7 17 98
7 18 96
7 19 25
7 20 285
7 21 216
7 22 172
7 23 263
7 24 148
7 25 226
7 26 28
7 27 254
7 28 232
7 29 148
7 30 277
7 31 122
7 32 271
7 33 116
7 34 286
7 35 38
7 36 223
7 37 195
7 38 106
7 39 189
7 40 260
7 41 256
7 42 284
7 43 114
7 44 174
7 45 235
7 46 255
7 47 187
7 48 293
7 49 211
7 50 164
7 51 128
7 52 293
7 53 116
7 54 212
7 55 145
7 56 105
7 57 284
7 58 261
7 59 222
7 60 94
7 61 77
7 62 175
7 63 136
7 64 171
7 65 240
7 66 141
7 67 273
7 68 185
7 69 207
7 70 119
7 71 125
7 72 287
7 73 210
7 74 287
7 75 290
7 76 257
7 77 77
7 78 146
7 79 109
7 80 198
8 9 108
8 10 191
8 11 12
8 12 13
8 13 98
8 14 294
8 15 219
8 16 89
8 17 117
8 18 182
8 19 179
8 20 48
8 21 166
8 22 123
8 23 97
8 24 189
8 25 267
8 26 142
8 27 231
8 28 245
8 29 215
8 30 68
8 31 299
8 32 293
8 33 196
8 34 71
8 35 103
8 36 240
8 37 112
8 38 166
8 39 76
8 40 31
8 41 163
8 42 36
8 43 45
8 44 156
8 45 10
8 46 241
8 47 298
8 48 21
8 49 178
8 50 119
8 51 48
8 52 200
8 53 178
8 54 30
8 55 116
8 56 179
8 57 174
8 58 136
8 59 35
8 60 20
8 61 17
8 62 134
8 63 74
8 64 71
8 65 277
8 66 87
8 67 34
8 68 269
8 69 189
8 70 252
8 71 29
8 72 290
8 73 140
8 74 218
8 75 73
8 76 188
8 77 57
8 78 172
8 79 52
8 80 231
9 10 11
9 11 219
9 12 162
9 13 280
9 14 84
9 15 236
9 16 220
9 17 247
9 18 13
9 19 29
9 20 203
9 21 121
9 22 299
9 23 140
9 24 150
9 25 260
9 26 299
9 27 271
9 28 127
9 29 75
9 30 158
9 31 25
9 32 62
9 33 95
9 34 112
9 35 189
9 36 256
9 37 33
9 38 18
9 39 251
9 40 48
9 41 28
9 42 185
9 43 167
9 44 177
9 45 112
9 46 270
9 47 183
9 48 75
9 49 222
9 50 173
9 51 115
9 52 144
9 53 196
9 54 177
9 55 187
9 56 118
9 57 187
9 58 186
9 59 195
9 60 266
9 61 94
9 62 190
9 63 23
9 64 269
9 65 92
9 66 66
9 67 275
9 68 257
9 69 255
9 70 106
9 71 207
9 72 158
9 73 221
9 74 169
9 75 175
9 76 10
9 77 266
9 78 240
9 79 218
9 80 211
10 11 274
10 12 182
10 13 41
10 14 277
10 15 48
10 16 255
10 17 60
10 18 291
10 19 257
10 20 136
10 21 31
10 22 75
10 23 153
10 24 252
10 25 116
10 26 225
10 27 295
10 28 109
10 29 268
10 30 22
10 31 214
10 32 92
10 33 28
10 34 225
10 35 233
10 36 36
10 37 211
10 38 246
10 39 266
10 40 136
10 41 41
10 42 119
10 43 176
10 44 18
10 45 199
10 46 102
10 47 170
10 48 23
10 49 10
10 50 129
10 51 255
10 52 268
10 53 252
10 54 191
10 55 186
10 56 114
10 57 25
10 58 13
10 59 15
10 60 39
10 61 224
10 62 241
10 63 151
10 64 130
10 65 79
10 66 75
10 67 58
10 68 74
10 69 162
10 70 204
10 71 185
10 72 134
10 73 252
10 74 73
10 75 54
10 76 151
10 77 183
10 78 142
10 79 78
10 80 22
11 12 189
11 13 219
11 14 100
11 15 249
11 16 199
11 17 209
11 18 103
11 19 99
11 20 20
11 21 277
11 22 151
11 23 67
11 24 78
11 25 278
11 26 101
11 27 96
11 28 281
11 29 46
11 30 285
11 31 191
11 32 256
11 33 96
11 34 76
11 35 34
11 36 133
11 37 15
11 38 17
11 39 45
11 40 73
11 41 247
11 42 175
11 43 30
11 44 223
11 45 82
11 46 16
11 47 50
11 48 270
11 49 218
11 50 213
11 51 158
11 52 39
11 53 89
11 54 67
11 55 214
11 56 54
11 57 40
11 58 267
11 59 49
11 60 275
11 61 194
11 62 27
11 63 102
11 64 151
11 65 156
11 66 10
11 67 73
11 68 188
11 69 133
11 70 160
11 71 81
11 72 39
11 73 287
11 74 103
11 75 36
11 76 140
11 77 257
11 78 130
11 79 110
11 80 247
12 13 235
12 14 256
12 15 232
12 16 116
12 17 112
12 18 143
12 19 280
12 20 183
12 21 32
12 22 174
12 23 156
12 24 276
12 25 87
12 26 62
12 27 117
12 28 287
12 29 150
12 30 85
12 31 135
12 32 201
12 33 93
12 34 177
12 35 127
12 36 299
12 37 187
12 38 201
12 39 198
12 40 64
12 41 110
12 42 27
12 43 261
12 44 292
12 45 77
12 46 291
12 47 297
12 48 105
12 49 129
12 50 209
12 51 68
12 52 83
12 53 119
12 54 139
12 55 34
12 56 154
12 57 204
12 58 103
12 59 188
12 60 207
12 61 300
12 62 30
12 63 93
12 64 40
12 65 162
12 66 217
12 67 287
12 68 13
12 69 203
12 70 263
12 71 87
12 72 287
12 73 279
12 74 16
12 75 175
12 76 111
12 77 208
12 78 245
12 79 287
12 80 163
13 14 233
13 15 214
13 16 187
13 17 72
13 18 169
13 19 212
13 20 182
13 21 49
13 22 104
13 23 276
13 24 140
13 25 248
13 26 81
13 27 64
13 28 286
13 29 133
13 30 25
13 31 20
13 32 269
13 33 195
13 34 162
13 35 34
13 36 192
13 37 190
13 38 295
13 39 258
13 40 64
13 41 149
13 42 36
13 43 296
13 44 121
13 45 74
13 46 202
13 47 67
13 48 275
13 49 206
13 50 282
13 51 67
13 52 265
13 53 196
13 54 250
13 55 165
13 56 264
13 57 208
13 58 185
13 59 232
13 60 214
13 61 274
13 62 292
13 63 139
13 64 278
13 65 115
13 66 179
13 67 96
13 68 101
13 69 18
13 70 62
13 71 163
13 72 97
13 73 153
13 74 188
13 75 266
13 76 90
13 77 111
13 78 207
13 79 279
13 80 255
14 15 181
14 16 138
14 17 135
14 18 215
14 19 155
14 20 54
14 21 133
14 22 64
14 23 113
14 24 86
14 25 226
14 26 173
14 27 56
14 28 224
14 29 99
14 30 117
14 31 299
14 32 151
14 33 168
14 34 162
14 35 155
14 36 198
14 37 218
14 38 47
14 39 284
14 40 190
14 41 71
14 42 77
14 43 251
14 44 296
14 45 49
14 46 146
14 47 139
14 48 167
14 49 111
14 50 220
14 51 63
14 52 105
14 53 235
14 54 155
14 55 49
14 56 90
14 57 54
14 58 30
14 59 226
14 60 288
14 61 109
14 62 162
14 63 218
14 64 17
14 65 87
14 66 230
14 67 293
14 68 248
14 69 117
14 70 248
14 71 200
14 72 221
14 73 226
14 74 187
14 75 235
14 76 173
14 77 99
14 78 54
14 79 165
14 80 38
15 16 186
15 17 87
15 18 106
15 19 105
15 20 152
15 21 118
15 22 86
15 23 203
15 24 94
15 25 216
15 26 72
15 27 93
15 28 300
15 29 90
15 30 51
15 31 153
15 32 151
15 33 30
15 34 107
15 35 226
15 36 294
15 37 105
15 38 163
15 39 244
15 40 16
15 41 292
15 42 27
15 43 17
15 44 26
15 45 96
15 46 25
15 47 157
15 48 182
15 49 11
15 50 216
15 51 122
15 52 239
15 53 201
15 54 133
15 55 12
15 56 159
15 57 129
15 58 208
15 59 67
15 60 231
15 61 144
15 62 168
15 63 113
15 64 188
15 65 257
15 66 91
15 67 47
15 68 291
15 69 150
15 70 243
15 71 93
15 72 156
15 73 77
15 74 141
15 75 288
15 76 49
15 77 276
15 78 66
15 79 81
15 80 237
16 17 159
16 18 72
16 19 76
16 20 19
16 21 88
16 22 168
16 23 62
16 24 53
16 25 139
16 26 187
16 27 172
16 28 100
16 29 295
16 30 174
16 31 41
16 32 76
16 33 255
16 34 116
16 35 100
16 36 238
16 37 85
16 38 88
16 39 101
16 40 19
16 41 111
16 42 33
16 43 214
16 44 105
16 45 131
16 46 291
16 47 259
16 48 36
16 49 219
16 50 104
16 51 259
16 52 65
16 53 212
16 54 123
16 55 227
16 56 283
16 57 260
16 58 228
16 59 143
16 60 240
16 61 224
16 62 147
16 63 24
16 64 237
16 65 233
16 66 17
16 67 133
16 68 83
16 69 67
16 70 65
16 71 107
16 72 161
16 73 106
16 74 295
16 75 152
16 76 168
16 77 89
16 78 175
16 79 218
16 80 101
17 18 89
17 19 18
17 20 262
17 21 294
17 22 213
17 23 242
17 24 269
17 25 238
17 26 120
17 27 175
17 28 225
17 29 124
17 30 120
17 31 296
17 32 181
17 33 268
17 34 117
17 35 219
17 36 242
17 37 211
17 38 235
17 39 231
17 40 86
17 41 46
17 42 214
17 43 238
17 44 44
17 45 256
17 46 66
17 47 70
17 48 167
17 49 69
17 50 81
17 51 60
17 52 14
17 53 191
17 54 169
17 55 144
17 56 212
17 57 272
17 58 126
17 59 277
17 60 77
17 61 176
17 62 246
17 63 17
17 64 227
17 65 38
17 66 199
17 67 287
17 68 277
17 69 13
17 70 82
17 71 297
17 72 209
17 73 216
17 74 204
17 75 228
17 76 137
17 77 37
17 78 243
17 79 189
17 80 86
18 19 231
18 20 278
18 21 300
18 22 34
18 23 207
18 24 275
18 25 63
18 26 225
18 27 113
18 28 23
18 29 147
18 30 196
18 31 65
18 32 295
18 33 152
18 34 66
18 35 134
18 36 82
18 37 118
18 38 198
18 39 168
18 40 189
18 41 231
18 42 61
18 43 11
18 44 61
18 45 15
18 46 299
18 47 217
18 48 133
18 49 55
18 50 238
18 51 99
18 52 117
18 53 121
18 54 77
18 55 152
18 56 263
18 57 115
18 58 163
18 59 129
18 60 283
18 61 146
18 62 255
18 63 79
18 64 211
18 65 76
18 66 55
18 67 224
18 68 14
18 69 56
18 70 156
18 71 173
18 72 178
18 73 99
18 74 76
18 75 186
18 76 135
18 77 82
18 78 18
18 79 89
18 80 106
19 20 49
19 21 298
19 22 180
19 23 54
19 24 80
19 25 118
19 26 238
19 27 143
19 28 95
19 29 289
19 30 111
19 31 259
19 32 74
19 33 27
19 34 286
19 35 288
19 36 113
19 37 159
19 38 112
19 39 14
19 40 159
19 41 218
19 42 172
19 43 73
19 44 184
19 45 260
19 46 94
19 47 197
19 48 67
19 49 172
19 50 175
19 51 214
19 52 259
19 53 283
19 54 137
19 55 214
19 56 54
19 57 193
19 58 112
19 59 249
19 60 22
19 61 48
19 62 299
19 63 259
19 64 199
19 65 149
19 66 201
19 67 95
19 68 273
19 69 202
19 70 143
19 71 153
19 72 110
19 73 50
19 74 99
19 75 231
19 76 149
19 77 55
19 78 242
19 79 99
19 80 106
20 21 71
20 22 70
20 23 263
20 24 258
20 25 214
20 26 131
20 27 68
20 28 246
20 29 253
20 30 141
20 31 32
20 32 268
20 33 206
20 34 292
20 35 21
20 36 220
20 37 170
20 38 95
20 39 224
20 40 166
20 41 12
20 42 189
20 43 255
20 44 179
20 45 216
20 46 193
20 47 114
20 48 184
20 49 100
20 50 135
20 51 201
20 52 255
20 53 260
20 54 240
20 55 237
20 56 124
20 57 242
20 58 284
20 59 30
20 60 289
20 61 40
20 62 92
20 63 185
20 64 293
20 65 145
20 66 86
20 67 42
20 68 17
20 69 241
20 70 200
20 71 59
20 72 248
20 73 175
20 74 267
20 75 291
20 76 177
20 77 24
20 78 215
20 79 101
20 80 139
21 22 288
21 23 54
21 24 34
21 25 295
21 26 16
21 27 294
21 28 200
21 29 177
21 30 254
21 31 259
21 32 169
21 33 225
21 34 227
21 35 169
21 36 279
21 37 109
21 38 274
21 39 274
21 40 95
21 41 41
21 42 58
21 43 246
21 44 231
21 45 216
21 46 164
21 47 179
21 48 94
21 49 254
21 50 157
21 51 96
21 52 190
21 53 44
21 54 141
21 55 244
21 56 15
21 57 183
21 58 36
21 59 101
21 60 221
21 61 42
21 62 52
21 63 74
21 64 32
21 65 79
21 66 259
21 67 157
21 68 284
21 69 242
21 70 74
21 71 258
21 72 47
21 73 245
21 74 249
21 75 170
21 76 70
21 77 187
21 78 39
21 79 224
21 80 237
22 23 22
22 24 143
22 25 219
22 26 248
22 27 55
22 28 152
22 29 145
22 30 226
22 31 25
22 32 197
22 33 179
22 34 124
22 35 196
22 36 274
22 37 131
22 38 160
22 39 27
22 40 229
22 41 21
22 42 45
22 43 139
22 44 229
22 45 275
22 46 250
22 47 168
22 48 149
22 49 232
22 50 79
22 51 233
22 52 256
22 53 83
22 54 103
22 55 151
22 56 10
22 57 282
22 58 36
22 59 95
22 60 257
22 61 275
22 62 113
22 63 189
22 64 67
22 65 296
22 66 279
22 67 105
22 68 299
22 69 223
22 70 268
22 71 255
22 72 111
22 73 202
22 74 92
22 75 107
22 76 229
22 77 39
22 78 206
22 79 88
22 80 76
23 24 158
23 25 45
23 26 45
23 27 87
23 28 42
23 29 280
23 30 147
23 31 131
23 32 97
23 33 151
23 34 192
23 35 131
23 36 78
23 37 215
23 38 172
23 39 117
23 40 236
23 41 45
23 42 114
23 43 116
23 44 269
23 45 209
23 46 106
23 47 227
23 48 24
23 49 45
23 50 56
23 51 128
23 52 131
23 53 110
23 54 246
23 55 201
23 56 246
23 57 243
23 58 197
23 59 287
23 60 110
23 61 224
23 62 117
23 63 230
23 64 284
23 65 122
23 66 117
23 67 119
23 68 162
23 69 160
23 70 246
23 71 54
23 72 184
23 73 283
23 74 24
23 75 230
23 76 208
23 77 19
23 78 108
23 79 35
23 80 60
24 25 95
24 26 295
24 27 174
24 28 260
24 29 88
24 30 64
24 31 114
24 32 164
24 33 121
24 34 182
24 35 121
24 36 200
24 37 68
24 38 296
24 39 77
24 40 199
24 41 260
24 42 113
24 43 170
24 44 181
24 45 146
24 46 115
24 47 264
24 48 272
24 49 209
24 50 256
24 51 233
24 52 282
24 53 294
24 54 181
24 55 255
24 56 240
24 57 83
24 58 22
24 59 15
24 60 180
24 61 138
24 62 74
24 63 106
24 64 230
24 65 101
24 66 53
24 67 176
24 68 227
24 69 69
24 70 278
24 71 146
24 72 47
24 73 167
24 74 300
24 75 170
24 76 169
24 77 171
24 78 137
24 79 265
24 80 83
25 26 237
25 27 67
25 28 243
25 29 96
25 30 187
25 31 53
25 32 210
25 33 17
25 34 28
25 35 157
25 36 83
25 37 248
25 38 90
25 39 194
25 40 105
25 41 181
25 42 69
25 43 259
25 44 159
25 45 23
25 46 87
25 47 38
25 48 289
25 49 267
25 50 226
25 51 202
25 52 296
25 53 203
25 54 261
25 55 292
25 56 284
25 57 11
25 58 16
25 59 199
25 60 215
25 61 192
25 62 188
25 63 103
25 64 119
25 65 67
25 66 282
25 67 284
25 68 142
25 69 93
25 70 103
25 71 144
25 72 253
25 73 208
25 74 281
25 75 53
25 76 92
25 77 12
25 78 249
25 79 126
25 80 234
26 27 63
26 28 295
26 29 50
26 30 179
26 31 55
26 32 52
26 33 80
26 34 217
26 35 11
26 36 176
26 37 166
26 38 122
26 39 233
26 40 83
26 41 64
26 42 182
26 43 67
26 44 91
26 45 116
26 46 210
26 47 157
26 48 266
26 49 53
26 50 118
26 51 276
26 52 290
26 53 231
26 54 189
26 55 69
26 56 284
26 57 195
26 58 260
26 59 251
26 60 86
26 61 21
26 62 184
26 63 37
26 64 235
26 65 11
26 66 95
26 67 71
26 68 169
26 69 208
26 70 178
26 71 57
26 72 141
26 73 186
26 74 74
26 75 72
26 76 19
26 77 246
26 78 176
26 79 229
26 80 108
27 28 226
27 29 194
27 30 147
27 31 284
27 32 154
27 33 202
27 34 50
27 35 149
27 36 180
27 37 158
27 38 239
27 39 126
27 40 207
27 41 59
27 42 261
27 43 59
27 44 289
27 45 167
27 46 239
27 47 25
27 48 97
27 49 25
27 50 294
27 51 21
27 52 46
27 53 42
27 54 107
27 55 205
27 56 75
27 57 94
27 58 62
27 59 43
27 60 83
27 61 63
27 62 145
27 63 60
27 64 254
27 65 104
27 66 216
27 67 248
27 68 68
27 69 85
27 70 92
27 71 122
27 72 220
27 73 85
27 74 239
27 75 140
27 76 297
27 77 100
27 78 194
27 79 268
27 80 36
28 29 64
28 30 65
28 31 283
28 32 81
28 33 203
28 34 231
28 35 77
28 36 215
28 37 126
28 38 274
28 39 100
28 40 190
28 41 110
28 42 255
28 43 276
28 44 107
28 45 281
28 46 265
28 47 139
28 48 54
28 49 107
28 50 201
28 51 184
28 52 17
28 53 105
28 54 12
28 55 123
28 56 231
28 57 92
28 58 298
28 59 218
28 60 238
28 61 87
28 62 203
28 63 263
28 64 223
28 65 100
28 66 52
28 67 286
28 68 236
28 69 255
28 70 281
28 71 182
28 72 50
28 73 18
28 74 277
28 75 30
28 76 190
28 77 207
28 78 28
28 79 118
28 80 129
29 30 205
29 31 129
29 32 236
29 33 149
29 34 187
29 35 72
29 36 142
29 37 137
29 38 206
29 39 154
29 40 30
29 41 134
29 42 20
29 43 215
29 44 61
29 45 123
29 46 288
29 47 155
29 48 296
29 49 172
29 50 122
29 51 52
29 52 281
29 53 172
29 54 287
29 55 244
29 56 21
29 57 83
29 58 155
29 59 33
29 60 281
29 61 101
29 62 214
29 63 219
29 64 131
29 65 91
29 66 166
29 67 124
29 68 159
29 69 250
29 70 85
29 71 31
29 72 189
29 73 43
29 74 250
29 75 266
29 76 156
29 77 103
29 78 122
29 79 29
29 80 62
30 31 142
30 32 268
30 33 105
30 34 217
30 35 93
30 36 192
30 37 154
30 38 233
30 39 50
30 40 221
30 41 264
30 42 79
30 43 289
30 44 158
30 45 182
30 46 123
30 47 275
30 48 36
30 49 146
30 50 60
30 51 212
30 52 222
30 53 47
30 54 65
30 55 169
30 56 167
30 57 216
30 58 109
30 59 66
30 60 113
30 61 288
30 62 176
30 63 94
30 64 50
30 65 109
30 66 263
30 67 243
30 68 141
30 69 277
30 70 252
30 71 263
30 72 251
30 73 122
30 74 172
30 75 60
30 76 218
30 77 140
30 78 172
30 79 77
30 80 48
31 32 107
31 33 29
31 34 246
31 35 58
31 36 263
31 37 129
31 38 65
31 39 161
31 40 219
31 41 29
31 42 164
31 43 29
31 44 49
31 45 182
31 46 228
31 47 125
31 48 287
31 49 205
31 50 253
31 51 270
31 52 250
31 53 144
31 54 37
31 55 86
31 56 201
31 57 100
31 58 241
31 59 152
31 60 42
31 61 148
31 62 265
31 63 191
31 64 143
31 65 262
31 66 204
31 67 82
31 68 181
31 69 195
31 70 115
31 71 199
31 72 149
31 73 146
31 74 171
31 75 159
31 76 23
31 77 145
31 78 241
31 79 255
31 80 179
32 33 221
32 34 122
32 35 88
32 36 96
32 37 26
32 38 127
32 39 205
32 40 299
32 41 217
32 42 79
32 43 205
32 44 168
32 45 215
32 46 143
32 47 49
32 48 183
32 49 285
32 50 11
32 51 160
32 52 17
32 53 78
32 54 122
32 55 185
32 56 122
32 57 147
32 58 300
32 59 293
32 60 46
32 61 178
32 62 54
32 63 112
32 64 278
32 65 42
32 66 101
32 67 231
32 68 179
32 69 232
32 70 45
32 71 227
32 72 262
32 73 217
32 74 50
32 75 182
32 76 272
32 77 48
32 78 54
32 79 200
32 80 29
33 34 125
33 35 267
33 36 104
33 37 280
33 38 290
33 39 173
33 40 80
33 41 268
33 42 25
33 43 193
33 44 128
33 45 192
33 46 195
33 47 113
33 48 179
33 49 130
33 50 180
33 51 246
33 52 133
33 53 145
33 54 154
33 55 39
33 56 153
33 57 73
33 58 53
33 59 240
33 60 212
33 61 278
33 62 140
33 63 284
33 64 195
33 65 248
33 66 124
33 67 126
33 68 260
33 69 98
33 70 98
33 71 127
33 72 281
33 73 130
33 74 202
33 75 142
33 76 105
33 77 189
33 78 285
33 79 261
33 80 79
34 35 66
34 36 195
34 37 163
34 38 281
34 39 235
34 40 158
34 41 261
34 42 290
34 43 134
34 44 43
34 45 114
34 46 24
34 47 206
34 48 103
34 49 45
34 50 84
34 51 268
34 52 216
34 53 161
34 54 50
34 55 260
34 56 10
34 57 11
34 58 142
34 59 74
34 60 205
34 61 82
34 62 89
34 63 65
34 64 282
34 65 176
34 66 219
34 67 190
34 68 46
34 69 142
34 70 175
34 71 100
34 72 107
34 73 133
34 74 142
34 75 282
34 76 174
34 77 117
34 78 151
34 79 39
34 80 51
35 36 194
35 37 214
35 38 234
35 39 117
35 40 39
35 41 166
35 42 95
35 43 206
35 44 237
35 45 201
35 46 297
35 47 213
35 48 177
35 49 153
35 50 161
35 51 145
35 52 73
35 53 250
35 54 151
35 55 230
35 56 166
35 57 238
35 58 178
35 59 121
35 60 280
35 61 61
35 62 278
35 63 226
35 64 62
35 65 46
35 66 144
35 67 23
35 68 24
35 69 244
35 70 164
35 71 134
35 72 115
35 73 191
35 74 216
35 75 115
35 76 65
35 77 27
35 78 250
35 79 172
35 80 220
36 37 66
36 38 12
36 39 245
36 40 128
36 41 203
36 42 285
36 43 194
36 44 207
36 45 168
36 46 201
36 47 76
36 48 41
36 49 281
36 50 11
36 51 78
36 52 184
36 53 72
36 54 143
36 55 214
36 56 203
36 57 94
36 58 34
36 59 262
36 60 280
36 61 297
36 62 273
36 63 206
36 64 71
36 65 165
36 66 219
36 67 264
36 68 46
36 69 295
36 70 151
36 71 19
36 72 116
36 73 33
36 74 65
36 75 154
36 76 93
36 77 34
36 78 146
36 79 125
36 80 40
37 38 55
37 39 40
37 40 192
37 41 22
37 42 241
37 43 265
37 44 67
37 45 169
37 46 81
37 47 252
37 48 39
37 49 51
37 50 278
37 51 88
37 52 249
37 53 267
37 54 86
37 55 227
37 56 108
37 57 240
37 58 207
37 59 31
37 60 130
37 61 276
37 62 114
37 63 294
37 64 165
37 65 206
37 66 248
37 67 250
37 68 159
37 69 137
37 70 272
37 71 183
37 72 72
37 73 188
37 74 92
37 75 236
37 76 296
37 77 209
37 78 210
37 79 42
37 80 141
38 39 206
38 40 67
38 41 253
38 42 57
38 43 193
38 44 179
38 45 86
38 46 23
38 47 240
38 48 91
38 49 171
38 50 39
38 51 81
38 52 33
38 53 109
38 54 15
38 55 89
38 56 38
38 57 194
38 58 104
38 59 92
38 60 15
38 61 42
38 62 159
38 63 105
38 64 42
38 65 65
38 66 55
38 67 166
38 68 69
38 69 134
38 70 45
38 71 287
38 72 228
38 73 229
38 74 100
38 75 190
38 76 130
38 77 165
38 78 181
38 79 172
38 80 279
39 40 206
39 41 64
39 42 202
39 43 59
39 44 70
39 45 79
39 46 204
39 47 214
39 48 281
39 49 222
39 50 33
39 51 213
39 52 287
39 53 214
39 54 267
39 55 159
39 56 140
39 57 52
39 58 28
39 59 81
39 60 204
39 61 271
39 62 226
39 63 274
39 64 203
39 65 179
39 66 137
39 67 209
39 68 260
39 69 79
39 70 287
39 71 253
39 72 251
39 73 240
39 74 267
39 75 132
39 76 114
39 77 222
39 78 270
39 79 267
39 80 262
40 41 38
40 42 278
40 43 257
40 44 271
40 45 44
40 46 158
40 47 161
40 48 161
40 49 27
40 50 59
40 51 141
40 52 166
40 53 251
40 54 290
40 55 138
40 56 176
40 57 273
40 58 201
40 59 278
40 60 253
40 61 92
40 62 19
40 63 70
40 64 228
40 65 35
40 66 144
40 67 202
40 68 134
40 69 36
40 70 11
40 71 240
40 72 175
40 73 161
40 74 43
40 75 180
40 76 101
40 77 142
40 78 289
40 79 221
40 80 139
41 42 172
41 43 255
41 44 188
41 45 182
41 46 176
41 47 126
41 48 282
41 49 167
41 50 151
41 51 198
41 52 286
41 53 179
41 54 56
41 55 41
41 56 289
41 57 61
41 58 296
41 59 24
41 60 297
41 61 109
41 62 85
41 63 212
41 64 163
41 65 164
41 66 149
41 67 208
41 68 267
41 69 67
41 70 269
41 71 199
41 72 253
41 73 136
41 74 64
41 75 285
41 76 204
41 77 186
41 78 143
41 79 159
41 80 194
42 43 100
42 44 126
42 45 261
42 46 285
42 47 63
42 48 143
42 49 119
42 50 45
42 51 175
42 52 294
42 53 42
42 54 158
42 55 20
42 56 93
42 57 41
42 58 44
42 59 241
42 60 193
42 61 114
42 62 228
42 63 75
42 64 32
42 65 11
42 66 212
42 67 119
42 68 147
42 69 175
42 70 13
42 71 72
42 72 177
42 73 272
42 74 136
42 75 94
42 76 150
42 77 140
42 78 109
42 79 23
42 80 60
43 44 139
43 45 117
43 46 144
43 47 115
43 48 219
43 49 188
43 50 236
43 51 294
43 52 104
43 53 110
43 54 142
43 55 299
43 56 54
43 57 50
43 58 247
43 59 152
43 60 36
43 61 264
43 62 281
43 63 119
43 64 65
43 65 46
43 66 34
43 67 239
43 68 146
43 69 215
43 70 221
43 71 106
43 72 164
43 73 266
43 74 156
43 75 261
43 76 140
43 77 139
43 78 138
43 79 85
43 80 209
44 45 235
44 46 254
44 47 289
44 48 294
44 49 42
44 50 196
44 51 166
44 52 203
44 53 197
44 54 95
44 55 123
44 56 284
44 57 232
44 58 139
44 59 43
44 60 266
44 61 137
44 62 52
44 63 194
44 64 233
44 65 47
44 66 241
44 67 283
44 68 205
44 69 222
44 70 204
44 71 292
44 72 46
44 73 252
44 74 37
44 75 232
44 76 181
44 77 182
44 78 263
44 79 155
44 80 234
45 46 205
45 47 192
45 48 166
45 49 267
45 50 295
45 51 140
45 52 152
45 53 155
45 54 175
45 55 63
45 56 233
45 57 35
45 58 300
45 59 10
45 60 56
45 61 38
45 62 98
45 63 291
45 64 273
45 65 222
45 66 61
45 67 122
45 68 76
45 69 162
45 70 135
45 71 208
45 72 202
45 73 289
45 74 277
45 75 295
45 76 208
45 77 79
45 78 109
45 79 238
45 80 81
46 47 278
46 48 250
46 49 196
46 50 74
46 51 52
46 52 25
46 53 219
46 54 126
46 55 204
46 56 122
46 57 281
46 58 252
46 59 175
46 60 224
46 61 83
46 62 186
46 63 286
46 64 296
46 65 280
46 66 55
46 67 11
46 68 99
46 69 126
46 70 278
46 71 292
46 72 67
46 73 246
46 74 35
46 75 283
46 76 93
46 77 281
46 78 279
46 79 11
46 80 29
47 48 131
47 49 296
47 50 300
47 51 55
47 52 190
47 53 259
47 54 189
47 55 183
47 56 39
47 57 23
47 58 172
47 59 182
47 60 121
47 61 94
47 62 46
47 63 213
47 64 52
47 65 205
47 66 61
47 67 297
47 68 267
47 69 71
47 70 201
47 71 33
47 72 184
47 73 269
47 74 144
47 75 52
47 76 10
47 77 258
47 78 264
47 79 197
47 80 140
48 49 207
48 50 292
48 51 39
48 52 137
48 53 238
48 54 274
48 55 117
48 56 226
48 57 258
48 58 82
48 59 79
48 60 104
48 61 178
48 62 253
48 63 212
48 64 10
48 65 273
48 66 266
48 67 130
48 68 92
48 69 233
48 70 221
48 71 248
48 72 295
48 73 291
48 74 103
48 75 59
48 76 55
48 77 199
48 78 17
48 79 203
48 80 216
49 50 282
49 51 80
49 52 236
49 53 180
49 54 271
49 55 279
49 56 77
49 57 287
49 58 237
49 59 233
49 60 260
49 61 176
49 62 277
49 63 146
49 64 117
49 65 123
49 66 256
49 67 140
49 68 143
49 69 53
49 70 124
49 71 121
49 72 190
49 73 57
49 74 168
49 75 12
49 76 130
49 77 220
49 78 216
49 79 279
49 80 271
50 51 41
50 52 54
50 53 249
50 54 166
50 55 195
50 56 138
50 57 10
50 58 193
50 59 99
50 60 290
50 61 134
50 62 241
50 63 151
50 64 103
50 65 191
50 66 79
50 67 37
50 68 34
50 69 281
50 70 217
50 71 216
50 72 212
50 73 132
50 74 142
50 75 186
50 76 44
50 77 18
50 78 55
50 79 241
50 80 241
51 52 243
51 53 21
51 54 270
51 55 196
51 56 63
51 57 247
51 58 237
51 59 66
51 60 102
51 61 285
51 62 131
51 63 189
51 64 183
51 65 189
51 66 239
51 67 116
51 68 274
51 69 148
51 70 155
51 71 202
51 72 133
51 73 201
51 74 226
51 75 156
51 76 273
51 77 272
51 78 137
51 79 117
51 80 202
52 53 179
52 54 107
52 55 115
52 56 123
52 57 35
52 58 283
52 59 95
52 60 55
52 61 50
52 62 43
52 63 103
52 64 83
52 65 125
52 66 92
52 67 64
52 68 73
52 69 82
52 70 261
52 71 98
52 72 143
52 73 139
52 74 194
52 75 27
52 76 164
52 77 54
52 78 276
52 79 137
52 80 146
53 54 93
53 55 107
53 56 227
53 57 193
53 58 76
53 59 57
53 60 256
53 61 114
53 62 86
53 63 37
53 64 136
53 65 213
53 66 298
53 67 85
53 68 60
53 69 212
53 70 79
53 71 112
53 72 44
53 73 220
53 74 289
53 75 192
53 76 145
53 77 179
53 78 285
53 79 176
53 80 269
54 55 284
54 56 170
54 57 50
54 58 10
54 59 215
54 60 250
54 61 124
54 62 183
54 63 92
54 64 298
54 65 247
54 66 78
54 67 38
54 68 226
54 69 67
54 70 170
54 71 147
54 72 65
54 73 118
54 74 145
54 75 45
54 76 265
54 77 140
54 78 127
54 79 251
54 80 297
55 56 76
55 57 49
55 58 69
55 59 274
55 60 298
55 61 32
55 62 240
55 63 281
55 64 29
55 65 35
55 66 120
55 67 35
55 68 290
55 69 292
55 70 22
55 71 135
55 72 165
55 73 40
55 74 225
55 75 133
55 76 171
55 77 129
55 78 109
55 79 94
55 80 89
56 57 271
56 58 158
56 59 179
56 60 145
56 61 70
56 62 97
56 63 134
56 64 199
56 65 286
56 66 28
56 67 129
56 68 24
56 69 286
56 70 273
56 71 89
56 72 146
56 73 27
56 74 16
56 75 144
56 76 100
56 77 292
56 78 73
56 79 52
56 80 115
57 58 22
57 59 298
57 60 29
57 61 53
57 62 104
57 63 270
57 64 20
57 65 107
57 66 238
57 67 201
57 68 275
57 69 263
57 70 247
57 71 31
57 72 110
57 73 151
57 74 200
57 75 63
57 76 214
57 77 28
57 78 195
57 79 86
57 80 191
58 59 184
58 60 142
58 61 262
58 62 182
58 63 38
58 64 86
58 65 236
58 66 141
58 67 78
58 68 77
58 69 100
58 70 37
58 71 19
58 72 241
58 73 118
58 74 179
58 75 108
58 76 190
58 77 164
58 78 196
58 79 130
58 80 245
59 60 250
59 61 257
59 62 223
59 63 191
59 64 175
59 65 198
59 66 238
59 67 125
59 68 74
59 69 145
59 70 40
59 71 220
59 72 205
59 73 27
59 74 227
59 75 209
59 76 119
59 77 281
59 78 121
59 79 55
59 80 111
60 61 248
60 62 151
60 63 275
60 64 245
60 65 77
60 66 117
60 67 273
60 68 121
60 69 217
60 70 121
60 71 127
60 72 55
60 73 271
60 74 275
60 75 92
60 76 234
60 77 62
60 78 110
60 79 288
60 80 109
61 62 92
61 63 289
61 64 176
61 65 41
61 66 178
61 67 139
61 68 87
61 69 216
61 70 91
61 71 119
61 72 114
61 73 122
61 74 145
61 75 75
61 76 22
61 77 245
61 78 185
61 79 235
61 80 81
62 63 237
62 64 129
62 65 237
62 66 257
62 67 277
62 68 204
62 69 168
62 70 221
62 71 169
62 72 102
62 73 286
62 74 44
62 75 227
62 76 262
62 77 135
62 78 161
62 79 37
62 80 119
63 64 300
63 65 271
63 66 201
63 67 34
63 68 210
63 69 181
63 70 241
63 71 37
63 72 155
63 73 112
63 74 176
63 75 164
63 76 34
63 77 90
63 78 69
63 79 143
63 80 140
64 65 31
64 66 105
64 67 50
64 68 251
64 69 93
64 70 128
64 71 51
64 72 297
64 73 98
64 74 199
64 75 54
64 76 18
64 77 229
64 78 33
64 79 78
64 80 124
65 66 166
65 67 77
65 68 109
65 69 233
65 70 44
65 71 45
65 72 274
65 73 61
65 74 153
65 75 258
65 76 161
65 77 199
65 78 150
65 79 287
65 80 118
66 67 112
66 68 79
66 69 123
66 70 171
66 71 131
66 72 24
66 73 36
66 74 14
66 75 173
66 76 215
66 77 260
66 78 53
66 79 125
66 80 75
67 68 290
67 69 99
67 70 52
67 71 149
67 72 47
67 73 196
67 74 177
67 75 200
67 76 244
67 77 296
67 78 182
67 79 249
67 80 283
68 69 19
68 70 294
68 71 101
68 72 42
68 73 69
68 74 257
68 75 37
68 76 156
68 77 298
68 78 58
68 79 33
68 80 10
69 70 262
69 71 18
69 72 13
69 73 120
69 74 200
69 75 117
69 76 45
69 77 281
69 78 168
69 79 120
69 80 160
70 71 188
70 72 112
70 73 106
70 74 274
70 75 106
70 76 188
70 77 113
70 78 94
70 79 125
70 80 89
71 72 143
71 73 126
71 74 289
71 75 28
71 76 242
71 77 84
71 78 283
71 79 277
71 80 160
72 73 296
72 74 16
72 75 288
72 76 154
72 77 217
72 78 139
72 79 229
72 80 246
73 74 68
73 75 61
73 76 195
73 77 17
73 78 151
73 79 151
73 80 227
74 75 193
74 76 230
74 77 253
74 78 167
74 79 192
74 80 165
75 76 190
75 77 96
75 78 96
75 79 118
75 80 75
76 77 140
76 78 112
76 79 240
76 80 64
77 78 211
77 79 189
77 80 33
78 79 68
78 80 142
79 80 25
